(set-info :Origin "This instance was generated by: BanditFuzz-- an RL fuzzer for SMT solvers" )
(set-info :Author "Joe Scott, Fed Mora, Vijay Ganesh" )
(set-info :Contact "Joe Scott, joseph.scott@uwaterloo.ca")
(set-logic QF_BV)
(declare-const bool_0 Bool)
(declare-const bool_1 Bool)
(declare-const bool_2 Bool)
(declare-const bool_3 Bool)
(declare-const bool_4 Bool)
(declare-const bv_0 (_ BitVec 32))
(declare-const bv_1 (_ BitVec 32))
(declare-const bv_2 (_ BitVec 32))
(declare-const bv_3 (_ BitVec 32))
(declare-const bv_4 (_ BitVec 32))
(assert (and (bvuge (bvsdiv #xdb897713  #x32b41bd8 ) (bvnor bv_3 bv_1)) (bvsge (bvsmod #x0039728c  bv_2) (bvxnor #x41ef69ff  #x71b00b30 ))))
(assert (or (bvugt (bvsmod bv_4 bv_4) (bvsub #x245eeafb  #x6132f003 )) (bvsle (bvlshr bv_0 #x3b4b649d ) (bvnand #xb8a7470e  #xb8344b2b ))))
(assert (xor (or (bvsge #x562cd26d  #x8262c335 ) (bvslt #x3618be1b  #xb7889d25 )) (=> (bvsgt bv_2 bv_2) (bvugt bv_1 #x0aa244c0 ))))
(assert (or (=> (bvsgt bv_4 bv_2) (xor true false)) (or (bvule #xc3309ea0  bv_4) (bvsle #x790609bf  #x5476b8fb ))))
(assert (bvugt (bvadd (bvudiv #x005f3106  #x96d44bc2 ) (bvand #xaee125ef  bv_2)) (bvlshr (bvnor bv_2 bv_0) (bvudiv #x4b159c64  #x6639fc37 ))))
(check-sat)
(exit)
